robust/generate/spp_dkp_Lefebvre_et_al_2026/src/shortest_path_5_7.kp
49
95

[1.79 1.47 5.5 5.29 4.06 3.37 3.25 1.25 4.57 5.32 4.28 2.96 2.63 4.76 5.02 1.36]

[69 2 66 18 4 68 25 60 26 9 95 93 63 57 21 3]
