robust/generate/spp_dkp_Lefebvre_et_al_2026/src/shortest_path_5_7.lp
\ Model sp_5_7
\ LP format - for model browsing. Use MPS format to capture full model detail.
\ Signature: 0x6daf66c4acd85796
Minimize
  53.25 y[0,1] + 61.59 y[0,2] + 65.46 y[0,3] + 43.05 y[0,4] + 53.25 y[1,0]
   + 54.08 y[1,3] + 61.59 y[2,0] + 42.45 y[2,3] + 36.14 y[2,4]
   + 65.46 y[3,0] + 54.08 y[3,1] + 42.45 y[3,2] + 67.68 y[3,4]
   + 43.05 y[4,0] + 36.14 y[4,2] + 67.68 y[4,3] + 5.325 r[0,1]
   + 6.159 r[0,2] + 6.546 r[0,3] + 4.305 r[0,4] + 5.325 r[1,0]
   + 5.408 r[1,3] + 6.159 r[2,0] + 4.245 r[2,3] + 3.614 r[2,4]
   + 6.546 r[3,0] + 5.408 r[3,1] + 4.245 r[3,2] + 6.768 r[3,4]
   + 4.305 r[4,0] + 3.614 r[4,2] + 6.768 r[4,3]
Subject To
 flow_cons_inner_nodes[0]: - y[0,1] - y[0,2] - y[0,3] - y[0,4] + y[1,0]
   + y[2,0] + y[3,0] + y[4,0] = 0
 flow_cons_inner_nodes[2]: y[0,2] - y[2,0] - y[2,3] - y[2,4] + y[3,2]
   + y[4,2] = 0
 flow_cons_inner_nodes[3]: y[0,3] + y[1,3] + y[2,3] - y[3,0] - y[3,1]
   - y[3,2] - y[3,4] + y[4,3] = 0
 flow_cons_source: - y[0,1] + y[1,0] + y[1,3] - y[3,1] = 1
 flow_cons_target: y[0,4] + y[2,4] + y[3,4] - y[4,0] - y[4,2] - y[4,3] = 1
 primal_lower: - 1.79 y[0,1] - 1.47 y[0,2] - 5.5 y[0,3] - 5.29 y[0,4]
   - 4.06 y[1,0] - 3.37 y[1,3] - 3.25 y[2,0] - 1.25 y[2,3] - 4.57 y[2,4]
   - 5.32 y[3,0] - 4.28 y[3,1] - 2.96 y[3,2] - 2.63 y[3,4] - 4.76 y[4,0]
   - 5.02 y[4,2] - 1.36 y[4,3] + 69 u[0,1] + 2 u[0,2] + 66 u[0,3]
   + 18 u[0,4] + 4 u[1,0] + 68 u[1,3] + 25 u[2,0] + 60 u[2,3] + 26 u[2,4]
   + 9 u[3,0] + 95 u[3,1] + 93 u[3,2] + 63 u[3,4] + 57 u[4,0] + 21 u[4,2]
   + 3 u[4,3] <= 95
 mccormick1[0,1]: - u[0,1] + r[0,1] <= 0
 mccormick1[0,2]: - u[0,2] + r[0,2] <= 0
 mccormick1[0,3]: - u[0,3] + r[0,3] <= 0
 mccormick1[0,4]: - u[0,4] + r[0,4] <= 0
 mccormick1[1,0]: - u[1,0] + r[1,0] <= 0
 mccormick1[1,3]: - u[1,3] + r[1,3] <= 0
 mccormick1[2,0]: - u[2,0] + r[2,0] <= 0
 mccormick1[2,3]: - u[2,3] + r[2,3] <= 0
 mccormick1[2,4]: - u[2,4] + r[2,4] <= 0
 mccormick1[3,0]: - u[3,0] + r[3,0] <= 0
 mccormick1[3,1]: - u[3,1] + r[3,1] <= 0
 mccormick1[3,2]: - u[3,2] + r[3,2] <= 0
 mccormick1[3,4]: - u[3,4] + r[3,4] <= 0
 mccormick1[4,0]: - u[4,0] + r[4,0] <= 0
 mccormick1[4,2]: - u[4,2] + r[4,2] <= 0
 mccormick1[4,3]: - u[4,3] + r[4,3] <= 0
 mccormick2[0,1]: - y[0,1] + r[0,1] <= 0
 mccormick2[0,2]: - y[0,2] + r[0,2] <= 0
 mccormick2[0,3]: - y[0,3] + r[0,3] <= 0
 mccormick2[0,4]: - y[0,4] + r[0,4] <= 0
 mccormick2[1,0]: - y[1,0] + r[1,0] <= 0
 mccormick2[1,3]: - y[1,3] + r[1,3] <= 0
 mccormick2[2,0]: - y[2,0] + r[2,0] <= 0
 mccormick2[2,3]: - y[2,3] + r[2,3] <= 0
 mccormick2[2,4]: - y[2,4] + r[2,4] <= 0
 mccormick2[3,0]: - y[3,0] + r[3,0] <= 0
 mccormick2[3,1]: - y[3,1] + r[3,1] <= 0
 mccormick2[3,2]: - y[3,2] + r[3,2] <= 0
 mccormick2[3,4]: - y[3,4] + r[3,4] <= 0
 mccormick2[4,0]: - y[4,0] + r[4,0] <= 0
 mccormick2[4,2]: - y[4,2] + r[4,2] <= 0
 mccormick2[4,3]: - y[4,3] + r[4,3] <= 0
 mccormick3[0,1]: - y[0,1] - u[0,1] + r[0,1] >= -1
 mccormick3[0,2]: - y[0,2] - u[0,2] + r[0,2] >= -1
 mccormick3[0,3]: - y[0,3] - u[0,3] + r[0,3] >= -1
 mccormick3[0,4]: - y[0,4] - u[0,4] + r[0,4] >= -1
 mccormick3[1,0]: - y[1,0] - u[1,0] + r[1,0] >= -1
 mccormick3[1,3]: - y[1,3] - u[1,3] + r[1,3] >= -1
 mccormick3[2,0]: - y[2,0] - u[2,0] + r[2,0] >= -1
 mccormick3[2,3]: - y[2,3] - u[2,3] + r[2,3] >= -1
 mccormick3[2,4]: - y[2,4] - u[2,4] + r[2,4] >= -1
 mccormick3[3,0]: - y[3,0] - u[3,0] + r[3,0] >= -1
 mccormick3[3,1]: - y[3,1] - u[3,1] + r[3,1] >= -1
 mccormick3[3,2]: - y[3,2] - u[3,2] + r[3,2] >= -1
 mccormick3[3,4]: - y[3,4] - u[3,4] + r[3,4] >= -1
 mccormick3[4,0]: - y[4,0] - u[4,0] + r[4,0] >= -1
 mccormick3[4,2]: - y[4,2] - u[4,2] + r[4,2] >= -1
 mccormick3[4,3]: - y[4,3] - u[4,3] + r[4,3] >= -1
Bounds
Binaries
 y[0,1] y[0,2] y[0,3] y[0,4] y[1,0] y[1,3] y[2,0] y[2,3] y[2,4] y[3,0]
 y[3,1] y[3,2] y[3,4] y[4,0] y[4,2] y[4,3] u[0,1] u[0,2] u[0,3] u[0,4]
 u[1,0] u[1,3] u[2,0] u[2,3] u[2,4] u[3,0] u[3,1] u[3,2] u[3,4] u[4,0]
 u[4,2] u[4,3] r[0,1] r[0,2] r[0,3] r[0,4] r[1,0] r[1,3] r[2,0] r[2,3]
 r[2,4] r[3,0] r[3,1] r[3,2] r[3,4] r[4,0] r[4,2] r[4,3]
End
